NAME : airline78.pruned_local_16.-282579358.tour
COMMENT : Length = -282579358
TYPE : TOUR
DIMENSION : 29
TOUR_SECTION
28
27
16
5
14
20
21
12
7
15
11
9
8
13
2
1
4
3
18
19
17
6
10
22
23
24
25
26
29
-1
EOF
